num_people = 10;

busy_times = [
  {8,9,11,12,14,15,17},         
  {8,10,12,14,15,17},           
  {9,10,11,12,14},              
  {8,10,11,12,15,17},           
  {8,9,10,14,17},               
  {8,9,11,12,15,17},            
  {8,9,10,12,14,17},            
  {8,9,10,11,12,14,15,17},     
  {11,12,14,17},                
  {8,9,10,11,12}                
];
